SCIP Status        : problem creation / modification
Total Time         :       0.20
  reading          :       0.20
Original Problem   :
  Problem name     : main4.zpl
  Variables        : 18060 (18060 binary, 0 integer, 0 implicit integer, 0 continuous)
  Constraints      : 0 initial, 18360 maximal
  Objective        : minimize, 18060 non-zeros (abs.min = 0.00051, abs.max = 5700)
